c --- [ banner ] -------------------------------------------------------------
c 
c CaDiCaL Radically Simplified CDCL SAT Solver
c Copyright (c) 2016-2021 A. Biere, M. Fleury, N. Froleyks
c 
c Version 1.5.2 9c38a080b32c28d805e8e6ca21849856b0cda605
c g++ (Ubuntu 7.5.0-3ubuntu1~18.04) 7.5.0 -Wall -Wextra -O3 -DNDEBUG
c Wed Feb 16 23:15:36 EST 2022 Linux fac-vanhoeve01 5.4.0-99-generic x86_64
c 
c --- [ parsing input ] ------------------------------------------------------
c 
c reading DIMACS file from '<stdin>' (use '-h' for a list of common options)
c found 'p cnf 2692 7976' header
c parsed 7976 clauses in 0.00 seconds process time
c disconnecting from '<stdin>'
c after reading 106558 bytes 0.1 MB
c 
c --- [ options ] ------------------------------------------------------------
c 
c all options are set to their default value
c 
c --- [ solving ] ------------------------------------------------------------
c 
c time measured in process time since initialization
c 
c  seconds  reductions  redundant irredundant
c         MB    restarts       trail    variables
c          level   conflicts       glue      remaining
c 
c *  0.00  5  0 0   0    0    0  0% 0 7974 2618 97%
c {  0.01  5  0 0   0    0    0  0% 0 7974 2618 97%
c -  0.02  5 73 1  26  301  278 65% 8 7902 2618 97%
c -  0.06  5 41 2 113  901  751 79% 9 7902 2618 97%
c }  0.07  5 39 2 116 1001  841 79% 9 7902 2618 97%
c [  0.07  5  0 2 116 1001  841  0% 0 7902 2618 97%
c O  0.07  5 14 2 116 1002  842 94% 12 7902 2618 97%
c -  0.11  6 16 3 116 1801  958 93% 13 7902 2618 97%
c ]  0.18  6 15 3 117 3001 1761 92% 12 7902 2618 97%
c {  0.18  6 39 3 117 3001 1761 79% 9 7902 2618 97%
c -  0.18  6 39 4 118 3001 1236 79% 9 7902 2618 97%
c F  0.18  6 39 4 119 3006 1240 79% 9 7902 2618 97%
c s  0.19  6 36 4 137 3214 1434 81% 9 7902 2618 97%
c e  0.22  6 36 4 137 3214   51 81% 9 5684 885 33%
c s  0.22  6 36 4 137 3214   46 81% 9 5684 885 33%
c -  0.28  6 28 5 265 4502 1246 85% 9 5684 885 33%
c p  0.30  6 26 5 300 5000 1717 84% 9 5684 885 33%
c #  0.34  6 24 5 346 6009 2653 83% 9 5684 885 33%
c -  0.36  6 24 6 383 6304 2265 83% 9 5684 885 33%
c }  0.38  6 22 6 390 7003 2822 79% 9 5684 885 33%
c 
c  seconds  reductions  redundant   irredundant
c         MB    restarts       trail      variables
c          level   conflicts        glue      remaining
c 
c [  0.38  6 15 6 390 7003 2822 280% 12 5684 885 33%
c -  0.44  6 14 7 391 8405 2456 186% 11 5684 885 33%
c I  0.50  6 15 7 392 10010 3730 152% 12 5684 885 33%
c -  0.55  6 18 8 393 10805 3092 143% 13 5684 885 33%
c -  0.70  7 22 9 395 13507 3524 126% 16 5684 885 33%
c s  0.73  7 23 9 395 13948 3869 124% 16 5684 885 33%
c w  0.73  7 23 9 395 13948 3866 124% 16 5684 885 33%
c s  0.74  7 23 9 395 13948 3865 124% 16 5684 885 33%
c p  0.82  7 23 9 395 15001 4549 120% 17 5684 885 33%
c ]  0.82  7 23 9 395 15003 4551 120% 17 5684 885 33%
c {  0.82  7 22 9 395 15003 4551 79% 9 5684 885 33%
c B  0.82  7 22 9 396 15012 4560 79% 9 5684 885 33%
c -  0.90  7 22 10 525 16507 4015 81% 9 5684 885 33%
c -  1.04  6 21 11 798 19808 4604 80% 9 5684 885 33%
c W  1.11  6 21 11 892 21014 5725 81% 9 5684 885 33%
c -  1.23  7 21 12 1080 23409 5407 81% 10 5684 885 33%
c -  1.42  7 20 13 1331 27309 5872 82% 10 5684 885 33%
c F  1.46  7 20 13 1425 28015 6527 82% 10 5684 885 33%
c p  1.55  7 20 13 1508 30002 8201 82% 10 5684 885 33%
c }  1.60  7 20 13 1599 31004 9121 82% 10 5684 885 33%
c 
c  seconds  reductions     redundant   irredundant
c         MB     restarts         trail      variables
c          level      conflicts        glue      remaining
c 
c [  1.60  7 23 13 1599 31004 9121 120% 17 5684 885 33%
c -  1.63  7 23 14 1599 31510 6299 118% 17 5684 885 33%
c -  1.87  7 25 15 1602 36010 6905 109% 17 5684 885 33%
c B  1.87  7 25 15 1602 36017 6911 109% 17 5684 885 33%
c -  2.13  7 27 16 1605 40810 6475 103% 18 5684 885 33%
c W  2.39  7 27 16 1606 45019 9830 100% 18 5684 885 33%
c -  2.46  7 27 17 1607 45910 6467 99% 18 5684 885 33%
c p  2.70  7 26 17 1607 50002 9856 97% 18 5684 885 33%
c -  2.78  8 26 18 1607 51313 7185 97% 18 5684 885 33%
c O  2.99  8 26 18 1608 55022 10470 95% 18 5684 885 33%
c -  3.10  8 25 19 1610 57013 7814 95% 18 5684 885 33%
c ]  3.44  8 24 19 1614 63008 12317 93% 17 5684 885 33%
c {  3.44  8 20 19 1614 63008 12317 82% 10 5684 885 33%
c -  3.45  7 20 20 1616 63014 7715 82% 10 5684 885 33%
c B  3.59  7 20 20 1928 66023 10492 82% 10 5684 885 33%
c -  3.75  8 20 21 2107 69315 9019 82% 10 5684 885 33%
c p  4.03  8 20 21 2338 75002 14124 82% 10 5684 885 33%
c -  4.09  8 20 22 2418 75915 10062 82% 10 5684 885 33%
c W  4.22  8 20 22 2543 78024 12013 82% 10 5684 885 33%
c -  4.51  9 20 23 3094 82816 11141 83% 10 5684 885 33%
c 
c  seconds  reductions      redundant  irredundant
c         MB     restarts          trail     variables
c          level      conflicts        glue      remaining
c 
c -  4.87  8 19 24 3385 90016 11028 80% 10 5684 885 33%
c #  4.92  8 18 24 3385 91025 11797 79% 10 5684 885 33%
c -  5.25  9 18 25 3715 97516 11807 78% 10 5684 885 33%
c s  5.27  9 18 25 3715 97516 11746 78% 10 5684 885 33%
c w  5.29  9 18 25 3715 97516 11736 78% 10 5684 885 33%
c p  5.73  9 18 25 4435 105002 18670 79% 10 5684 885 33%
c B  5.74  9 18 25 4440 105028 18694 79% 10 5684 885 33%
c -  5.77 10 18 26 4506 105316 13536 79% 10 5684 885 33%
c -  6.22  9 18 27 4946 113416 13856 79% 10 5684 885 33%
c W  6.60  9 18 27 5221 120030 19710 79% 10 5684 885 33%
c -  6.72 10 18 28 5451 121817 14487 79% 10 5684 885 33%
c }  7.02 10 18 28 5828 127008 19272 79% 10 5684 885 33%
c [  7.02 10 24 28 5828 127008 19272 93% 17 5684 885 33%
c -  7.22 10 24 29 5828 130517 14745 93% 17 5684 885 33%
c B  7.56 10 23 29 5833 136034 19010 92% 17 5684 885 33%
c -  7.79 10 24 30 5835 139517 14377 92% 17 5684 885 33%
c p  7.83 10 24 30 5835 140003 14819 92% 17 5684 885 33%
c -  8.40  9 24 31 5836 148818 13437 91% 17 5684 885 33%
c W  8.72  9 23 31 5837 153035 16890 91% 17 5684 885 33%
c -  9.09 10 23 32 5837 158418 13446 90% 16 5684 885 33%
c 
c  seconds  reductions       redundant  irredundant
c         MB     restarts           trail     variables
c          level      conflicts         glue      remaining
c 
c -  9.74 10 23 33 5838 168318 13902 90% 16 5684 885 33%
c I  9.91 10 23 33 5840 171036 16075 89% 16 5684 885 33%
c - 10.41 12 24 34 5844 178518 15277 89% 17 5684 885 33%
c p 10.51 12 24 34 5844 180003 16564 89% 17 5684 885 33%
c - 11.16 12 24 35 5851 189020 15177 89% 17 5684 885 33%
c B 11.24 12 24 35 5851 190037 15936 89% 17 5684 885 33%
c - 11.96 10 23 36 5852 199820 14522 89% 17 5684 885 33%
c W 12.71 10 23 36 5859 210038 22742 89% 17 5684 885 33%
c - 12.79 12 23 37 5859 210921 15552 89% 17 5684 885 33%
c s 12.80 12 23 37 5859 210921 15519 89% 17 5684 885 33%
c w 12.83 12 23 37 5859 210921 15518 89% 17 5684 885 33%
c - 13.61 12 23 38 5866 222321 15136 89% 17 5684 885 33%
c p 13.80 12 23 38 5866 225004 16892 89% 17 5684 882 33%
c s 13.83 12 23 38 5866 225004 16833 89% 17 5675 882 33%
c ^ 13.83 12 23 38 5866 225004 16833 89% 17 5675 882 33%
c O 14.25 12 22 38 5867 231040 20693 89% 17 5675 882 33%
c - 14.45 12 22 39 5867 234022 15153 89% 17 5675 882 33%
c - 15.26 12 22 40 5868 246022 16267 89% 17 5675 882 33%
c s 15.31 12 22 40 5868 246492 16601 89% 17 5670 882 33%
c w 15.33 12 22 40 5868 246492 16601 89% 17 5670 882 33%
c 
c  seconds  reductions       redundant  irredundant
c         MB     restarts           trail     variables
c          level      conflicts         glue      remaining
c 
c s 15.34 12 22 40 5868 246492 16600 89% 17 5670 882 33%
c ^ 15.35 12 22 40 5868 246492 16600 89% 17 5670 882 33%
c B 15.82 12 22 40 5869 253043 21645 89% 17 5670 882 33%
c ] 15.95 12 23 40 5869 255008 23348 89% 17 5670 882 33%
c { 15.95 12 18 40 5869 255008 23348 79% 10 5670 882 33%
c - 16.19 14 18 41 6166 258326 18081 80% 10 5670 882 33%
c - 17.00 12 18 42 7117 270927 19814 80% 10 5670 882 33%
c s 17.19 12 18 42 7275 273337 21947 80% 10 5670 882 33%
c w 17.23 12 18 42 7275 273337 21945 80% 10 5670 882 33%
c s 17.29 12 18 42 7275 273337 21921 80% 10 5670 882 33%
c ^ 17.30 12 18 42 7275 273337 21921 80% 10 5670 882 33%
c p 17.43 12 18 42 7455 275005 23478 80% 10 5670 882 33%
c F 17.49 12 18 42 7460 276044 24445 80% 10 5670 882 33%
c - 18.01 14 18 43 7853 283828 22319 81% 10 5670 882 33%
c - 18.89 14 18 44 8701 297029 22891 81% 10 5670 882 33%
c B 19.07 14 18 44 8889 300045 25617 81% 10 5670 882 33%
c s 19.49 14 18 44 9301 305551 30674 81% 10 5670 882 33%
c w 19.53 14 18 44 9301 305551 30670 81% 10 5670 882 33%
c e 19.54 14 18 44 9301 305551 30670 81% 10 5676 880 33%
c s 19.60 14 18 44 9301 305551 30664 81% 10 5676 880 33%
c 
c  seconds  reductions       redundant  irredundant
c         MB     restarts           trail     variables
c          level      conflicts         glue      remaining
c 
c ^ 19.60 14 18 44 9301 305551 30664 81% 10 5676 880 33%
c - 20.03 14 18 45 9844 310529 24116 80% 10 5676 880 33%
c - 21.04 14 18 46 10866 324330 24502 81% 10 5676 880 33%
c W 21.17 14 18 46 10909 325047 25153 81% 10 5676 880 33%
c p 21.51 14 18 46 11202 330008 29557 81% 10 5676 880 33%
c - 22.14 14 18 47 11725 338430 25623 81% 10 5676 880 33%
c s 22.50 14 18 47 12059 343202 29777 82% 10 5676 880 33%
c w 22.54 14 18 47 12059 343202 29774 82% 10 5676 880 33%
c e 22.56 14 18 47 12059 343202 7218 82% 10 8094 565 21%
c s 22.58 14 18 47 12059 343202 7217 82% 10 8094 565 21%
c ^ 22.58 14 18 47 12059 343202 7217 82% 10 8094 565 21%
c # 22.94 12 18 47 12536 351048 14263 80% 10 8094 565 21%
c - 23.04 12 18 48 12655 352830 13532 81% 10 8094 565 21%
c - 23.87 14 18 49 13451 367531 19800 80% 10 8094 565 21%
c B 24.52 14 18 49 14224 378051 29520 81% 10 8094 565 21%
c - 24.84 16 18 50 14516 382535 23478 80% 10 8094 565 21%
c p 25.37 16 18 50 15070 390010 30278 81% 10 8094 565 21%
c - 25.92 14 18 51 15440 397835 24784 81% 10 8094 565 21%
c s 26.47 14 18 51 15936 404651 30945 81% 10 8094 565 21%
c w 26.52 14 18 51 15936 404651 30936 81% 10 8094 565 21%
c 
c  seconds  reductions        redundant  irredundant
c         MB      restarts           trail     variables
c          level       conflicts         glue      remaining
c 
c s 26.63 14 18 51 15936 404651 30931 81% 10 8094 565 21%
c W 26.93 14 18 51 16083 406052 32254 81% 10 8094 565 21%
c - 27.53 16 18 52 16604 413436 27132 81% 10 8094 565 21%
c - 28.68 14 18 53 17538 429336 26739 82% 10 8094 565 21%
c F 29.07 14 18 53 18002 435054 31962 82% 10 8094 565 21%
c - 29.87 16 18 54 18724 445538 27828 82% 10 8094 565 21%
c p 30.64 16 18 54 19597 455010 36511 82% 10 8094 565 21%
c - 31.30 16 18 55 20351 462039 29136 82% 10 8094 565 21%
c B 31.51 16 18 55 20470 465055 31741 81% 10 8094 565 21%
c - 32.67 16 18 56 21618 478839 30071 82% 10 8094 565 21%
c - 34.08 16 18 57 22933 495939 30712 82% 10 8094 565 21%
c W 34.24 16 18 57 22943 496056 30827 82% 10 8094 565 21%
c } 35.43 16 18 57 24023 511009 44516 82% 10 8094 565 21%
c [ 35.43 16 23 57 24023 511009 44516 140% 17 8094 565 21%
c - 35.60 16 23 58 24023 513340 31625 138% 17 8094 565 21%
c p 36.37 16 23 58 24023 525011 41835 131% 17 8094 565 21%
c W 36.80 16 23 58 24023 528058 44734 130% 17 8094 565 21%
c - 37.08 17 24 59 24023 531040 31775 128% 17 8094 565 21%
c - 38.62 17 25 60 24030 549040 29609 120% 18 8094 565 21%
c I 39.78 17 26 60 24037 561059 39955 116% 19 8094 565 21%
c 
c  seconds  reductions        redundant   irredundant
c         MB      restarts           trail      variables
c          level       conflicts          glue      remaining
c 
c - 40.34 17 27 61 24038 567341 29926 114% 19 8094 565 21%
c - 42.23 18 28 62 24045 585942 29259 109% 20 8094 565 21%
c B 43.16 18 29 62 24052 595060 36986 107% 21 8094 565 21%
c p 43.61 18 30 62 24053 600011 41527 106% 21 8094 565 21%
c - 44.03 16 30 63 24053 604843 29385 105% 21 8094 565 21%
c - 45.64 19 29 64 24055 624044 27828 102% 21 8094 565 21%
c W 46.31 19 29 64 24060 630061 32553 101% 21 8094 565 21%
c - 47.53 19 28 65 24067 643545 27875 99% 21 8094 565 21%
c - 49.35 19 28 66 24075 663345 29037 97% 21 8094 565 21%
c O 49.60 19 28 66 24076 666062 31161 97% 21 8094 565 21%
c p 50.59 19 27 66 24083 680012 41583 95% 20 8094 565 21%
c - 50.88 19 27 67 24084 683445 28297 95% 20 8094 565 21%
c B 52.35 19 26 67 24085 703066 43220 93% 19 8094 565 21%
c - 52.44 19 26 68 24085 703846 28787 93% 19 8094 565 21%
c - 54.10 20 26 69 24086 724546 29632 92% 19 8094 565 21%
c W 55.79 20 26 69 24087 741067 43368 91% 19 8094 565 21%
c - 56.29 20 26 70 24087 745546 30649 91% 19 8094 565 21%
c p 57.99 20 25 70 24087 765013 45026 90% 19 8094 565 21%
c - 58.21 20 25 71 24087 766847 29987 90% 19 8094 565 21%
c I 59.34 20 24 71 24087 780068 39553 90% 19 8094 565 21%
c 
c  seconds  reductions        redundant  irredundant
c         MB      restarts           trail     variables
c          level       conflicts         glue      remaining
c 
c - 60.03 21 25 72 24087 788449 32290 90% 18 8094 565 21%
c - 62.08 21 26 73 24091 810350 35834 90% 18 8094 565 21%
c s 62.19 21 26 73 24091 810350 35706 90% 18 8094 565 21%
c w 62.30 21 26 73 24091 810350 35689 90% 18 8094 565 21%
c B 63.19 21 26 73 24096 820070 43624 90% 18 8094 565 21%
c - 64.54 21 25 74 24102 832554 35780 89% 18 8094 565 21%
c p 66.63 21 25 74 24112 855015 54232 89% 17 8094 565 21%
c - 66.68 21 25 75 24112 855057 34191 89% 17 8094 565 21%
c W 67.37 21 24 75 24116 861073 38804 89% 17 8094 565 21%
c - 68.96 21 24 76 24118 877858 31696 89% 17 8094 565 21%
c - 70.95 21 23 77 24125 900959 31537 88% 17 8094 565 21%
c O 71.12 21 23 77 24127 903074 32885 88% 17 8094 565 21%
c - 72.83 21 22 78 24136 924361 30962 88% 16 8094 565 21%
c B 74.66 21 22 78 24147 946075 46591 88% 17 8094 565 21%
c - 74.88 21 22 79 24148 948064 31826 88% 17 8094 565 21%
c p 75.06 21 22 79 24148 950015 33444 88% 17 8094 565 21%
c - 77.14 21 21 80 24150 972065 33592 88% 17 8094 565 21%
c W 79.02 21 21 80 24150 990077 46927 88% 16 8094 565 21%
c - 79.62 21 21 81 24150 996367 34309 88% 16 8094 565 21%
c - 81.94 21 20 82 24160 1020967 32632 87% 16 8094 565 21%
c 
c  seconds  reductions         redundant  irredundant
c         MB      restarts            trail     variables
c          level        conflicts         glue      remaining
c 
c ] 82.10 21 20 82 24162 1023009 34086 87% 16 8094 565 21%
c { 82.10 21 18 82 24162 1023009 34086 82% 10 8094 565 21%
c # 83.01 21 18 82 25160 1035079 44913 82% 10 8094 565 21%
c - 84.02 21 18 83 26021 1045867 38852 82% 10 8094 565 21%
c p 84.41 21 18 83 26332 1050015 42469 82% 10 8094 565 21%
c - 86.35 21 18 84 27700 1071067 42154 82% 10 8094 565 21%
c B 87.26 21 18 84 28422 1081082 50836 82% 10 8094 565 21%
c - 88.80 21 18 85 29408 1096568 43849 81% 10 8094 565 21%
c - 91.28 24 18 86 30922 1122369 45599 82% 10 8094 565 21%
c W 92.06 24 18 86 31283 1128083 50717 82% 10 8094 565 21%
c - 94.24 24 18 87 32668 1148473 47567 82% 10 8094 565 21%
c p 94.80 24 18 87 32913 1155016 53391 82% 10 8094 565 21%
c - 96.80 24 18 88 33836 1174873 48485 82% 10 8094 565 21%
c F 96.93 24 18 88 33907 1176084 49578 82% 10 8094 565 21%
c - 99.96 28 18 89 35872 1201573 49767 82% 10 8094 565 21%
c B 102.69 28 17 89 37649 1225085 70536 82% 10 8094 565 21%
c - 103.19 28 18 90 37977 1228574 50780 82% 10 8094 565 21%
c - 106.21 28 17 91 39786 1255875 51492 81% 10 8094 565 21%
c s 106.36 28 17 91 39786 1255875 51321 81% 10 8094 565 21%
c w 106.51 28 17 91 39786 1255875 51289 81% 10 8094 565 21%
c 
c  seconds   reductions         redundant  irredundant
c          MB      restarts            trail     variables
c           level        conflicts         glue      remaining
c 
c p 107.39 28 17 91 40339 1265018 59103 82% 10 8094 564 21%
c s 107.57 28 17 91 40339 1265018 59088 82% 10 8089 564 21%
c W 109.31 23 17 91 41323 1275088 68116 82% 10 8089 564 21%
c - 110.53 21 17 92 42023 1283475 53983 82% 10 8089 564 21%
c - 113.80 25 17 93 43908 1311376 54091 81% 10 8089 564 21%
c # 115.50 25 17 93 45150 1326089 66921 81% 10 8089 564 21%
c - 117.20 29 17 94 46190 1339577 55512 82% 10 8089 564 21%
c s 117.57 29 17 94 46245 1341865 57288 82% 10 8078 564 21%
c w 117.66 29 17 94 46245 1341865 57285 82% 10 8078 564 21%
c s 117.85 29 17 94 46245 1341865 57281 82% 10 8078 564 21%
c - 120.96 29 17 95 47894 1368077 55467 82% 10 8078 564 21%
c B 122.11 29 17 95 48715 1378090 64167 82% 10 8078 564 21%
c p 122.38 29 17 95 48842 1380019 65869 82% 10 8078 564 21%
c - 124.60 29 17 96 50134 1396877 56747 81% 10 8078 564 21%
c - 128.01 29 18 97 52222 1425981 57999 82% 10 8078 564 21%
c W 128.87 29 17 97 52582 1431091 62411 82% 10 8078 564 21%
c - 131.91 29 17 98 54192 1455382 58130 82% 10 8078 564 21%
c - 135.41 29 17 99 55776 1485082 58409 82% 10 8078 564 21%
c F 135.42 29 17 99 55776 1485092 58417 82% 10 8078 564 21%
c p 137.23 29 17 99 56718 1500020 71469 82% 10 8078 559 21%
c 
c  seconds   reductions         redundant  irredundant
c          MB      restarts            trail     variables
c           level        conflicts         glue      remaining
c 
c s 137.46 29 17 99 56718 1500020 71397 82% 10 8078 559 21%
c v 137.50 29 17 99 56718 1500020 71397 82% 10 8029 559 21%
c w 137.62 29 17 99 56718 1500020 71386 82% 10 8029 559 21%
c s 137.85 29 17 99 56718 1500020 71382 82% 10 8004 559 21%
c - 139.46 29 17 100 57242 1515082 58446 82% 10 8004 559 21%
c B 142.51 29 17 100 58916 1540093 80399 82% 10 8004 559 21%
c - 143.37 29 17 101 59413 1545384 60641 82% 10 8004 559 21%
c - 147.54 30 17 102 61859 1575985 62629 82% 10 8004 559 21%
c s 149.41 30 17 102 62654 1592177 76246 80% 10 8004 559 21%
c w 149.54 30 17 102 62654 1592177 76241 80% 10 8004 559 21%
c s 149.80 30 17 102 62654 1592177 76237 80% 10 8004 559 21%
c W 150.81 30 17 102 62863 1596095 79572 80% 10 8004 559 21%
c - 152.57 30 17 103 63843 1606887 62893 81% 10 8004 559 21%
c p 154.65 30 17 103 64908 1625021 78276 80% 10 8004 559 21%
c - 156.42 30 17 104 65673 1638089 63737 81% 10 8004 559 21%
c # 158.04 30 17 104 66558 1653098 76621 81% 10 8004 559 21%
c - 160.23 30 16 105 67384 1669590 63358 82% 10 8004 559 21%
c - 163.85 30 16 106 68978 1701391 64740 82% 10 8004 559 21%
c B 165.13 30 16 106 69775 1711099 73106 82% 10 8004 559 21%
c - 167.95 30 16 107 70809 1733494 64657 82% 10 8004 559 21%
c 
c  seconds    reductions         redundant  irredundant
c          MB       restarts            trail     variables
c           level         conflicts         glue      remaining
c 
c p 170.57 30 16 107 72022 1755023 82590 82% 10 8004 557 21%
c s 170.86 30 16 107 72022 1755023 82487 82% 10 8004 557 21%
c v 170.91 30 16 107 72022 1755023 82487 82% 10 7982 557 21%
c w 171.04 30 16 107 72022 1755023 82478 82% 10 7982 557 21%
c s 171.33 30 16 107 72022 1755023 82474 82% 10 7972 557 21%
c - 173.03 30 16 108 72729 1765897 65463 82% 10 7972 557 21%
c } 173.54 30 16 108 72890 1770100 69046 82% 10 7972 557 21%
c 1 173.54 30 16 108 72890 1770100 69046 82% 10 7972 557 21%
c 
c --- [ result ] -------------------------------------------------------------
c 
s SATISFIABLE
v -1 -2 -3 -4 -5 -6 -7 -8 -9 -10 -11 -12 -13 -14 -15 16 -17 18 -19 -20 21 -22
v -23 24 -25 -26 27 -28 29 -30 -31 -32 -33 -34 -35 -36 -37 -38 -39 -40 -41 -42
v -43 -44 -45 -46 47 -48 -49 -50 -51 -52 -53 -54 -55 56 -57 -58 -59 -60 -61
v -62 -63 -64 -65 -66 -67 -68 69 70 71 -72 73 -74 -75 -76 77 -78 -79 -80 81
v -82 -83 -84 85 -86 -87 -88 89 -90 -91 -92 -93 -94 -95 96 97 -98 -99 100 -101
v -102 103 -104 -105 -106 -107 -108 -109 -110 111 -112 -113 -114 -115 -116
v -117 -118 -119 -120 -121 -122 -123 -124 -125 -126 -127 -128 -129 -130 131
v -132 -133 -134 -135 -136 -137 -138 -139 -140 141 -142 -143 -144 -145 -146
v -147 148 -149 -150 -151 -152 153 -154 -155 -156 -157 158 -159 -160 161 162
v -163 164 -165 -166 167 -168 -169 -170 -171 -172 173 -174 -175 -176 177 -178
v 179 -180 -181 -182 183 -184 -185 -186 -187 -188 -189 -190 -191 -192 -193
v -194 -195 -196 -197 198 -199 -200 201 -202 -203 -204 -205 -206 -207 -208
v -209 210 -211 -212 -213 -214 -215 -216 -217 -218 -219 -220 -221 -222 -223
v -224 225 -226 -227 -228 -229 -230 231 232 233 234 -235 -236 -237 -238 -239
v 240 -241 -242 -243 -244 -245 -246 -247 -248 -249 -250 -251 252 253 -254 255
v 256 -257 258 -259 260 -261 -262 -263 264 -265 266 -267 -268 269 270 -271 272
v -273 -274 -275 -276 277 278 -279 280 -281 282 -283 -284 -285 286 -287 288
v -289 -290 -291 292 -293 -294 -295 -296 -297 -298 -299 -300 -301 302 -303
v -304 305 -306 -307 308 309 -310 311 312 313 314 315 316 317 -318 319 -320
v -321 322 -323 -324 -325 326 327 328 329 330 331 332 333 334 335 336 337 338
v 339 340 341 342 343 344 345 346 347 348 349 350 351 352 353 354 355 356 357
v 358 359 360 361 362 363 364 365 366 367 368 369 370 371 372 373 374 375 376
v 377 378 379 380 381 382 383 384 385 386 387 388 389 390 391 392 393 394 395
v 396 397 398 -399 -400 401 402 403 404 405 406 407 408 409 410 411 412 413
v 414 415 416 417 418 419 420 421 422 423 424 425 426 427 428 429 430 431 432
v 433 434 435 436 437 438 439 440 441 442 443 444 445 446 447 448 449 450 451
v 452 453 454 455 456 457 458 459 460 461 462 463 464 465 466 467 468 469 470
v 471 472 -473 -474 -475 -476 477 478 479 480 481 482 483 484 485 486 487 488
v 489 490 491 492 493 494 495 496 497 498 499 500 501 502 503 504 505 506 507
v 508 509 510 511 512 513 514 515 516 517 518 519 520 521 522 523 524 525 526
v 527 528 529 530 531 532 533 534 535 536 537 538 539 540 541 542 543 544 545
v 546 -547 -548 -549 -550 -551 552 553 554 555 556 557 558 559 560 561 562 563
v 564 565 566 567 568 569 570 571 572 573 574 575 576 577 578 579 580 581 582
v 583 584 585 586 587 588 589 590 591 592 593 594 595 596 597 598 599 600 601
v 602 603 604 605 606 607 608 609 610 611 612 613 614 615 616 617 618 619 620
v -621 -622 -623 -624 -625 -626 -627 628 629 630 631 632 633 634 635 636 637
v 638 639 640 641 642 643 644 645 646 647 648 649 650 651 652 653 654 655 656
v 657 658 659 660 661 662 663 664 665 666 667 668 669 670 671 672 673 674 675
v 676 677 678 679 680 681 682 683 684 685 686 687 688 689 690 691 692 693 694
v -695 -696 -697 -698 -699 -700 -701 -702 -703 704 705 706 707 708 709 710 711
v 712 713 714 715 716 717 718 719 720 721 722 723 724 725 726 727 728 729 730
v 731 732 733 734 735 736 737 738 739 740 741 742 743 744 745 746 747 748 749
v 750 751 752 753 754 755 756 757 758 759 760 761 762 763 764 765 766 767 768
v -769 -770 -771 -772 -773 -774 -775 -776 -777 -778 -779 -780 -781 782 783 784
v 785 786 787 788 789 790 791 792 793 794 795 796 797 798 799 800 801 802 803
v 804 805 806 807 808 809 810 811 812 813 814 815 816 817 818 819 820 821 822
v 823 824 825 826 827 828 829 830 831 832 833 834 835 836 837 838 839 840 841
v 842 -843 -844 -845 -846 -847 -848 -849 -850 -851 -852 -853 -854 -855 -856
v -857 858 859 860 861 862 863 864 865 866 867 868 869 870 871 872 873 874 875
v 876 877 878 879 880 881 882 883 884 885 886 887 888 889 890 891 892 893 894
v 895 896 897 898 899 900 901 902 903 904 905 906 907 908 909 910 911 912 913
v 914 915 916 -917 -918 -919 -920 -921 -922 -923 -924 -925 -926 -927 -928 -929
v -930 -931 -932 -933 -934 935 936 937 938 939 940 941 942 943 944 945 946 947
v 948 949 950 951 952 953 954 955 956 957 958 959 960 961 962 963 964 965 966
v 967 968 969 970 971 972 973 974 975 976 977 978 979 980 981 982 983 984 985
v 986 987 988 989 990 -991 -992 -993 -994 -995 -996 -997 -998 -999 -1000 -1001
v -1002 -1003 -1004 -1005 -1006 -1007 -1008 -1009 1010 1011 1012 1013 1014
v 1015 1016 1017 1018 1019 1020 1021 1022 1023 1024 1025 1026 1027 1028 1029
v 1030 1031 1032 1033 1034 1035 1036 1037 1038 1039 1040 1041 1042 1043 1044
v 1045 1046 1047 1048 1049 1050 1051 1052 1053 1054 1055 1056 1057 1058 1059
v 1060 1061 1062 1063 1064 -1065 -1066 -1067 -1068 -1069 -1070 -1071 -1072
v -1073 -1074 -1075 -1076 -1077 -1078 -1079 -1080 -1081 -1082 -1083 -1084
v -1085 1086 1087 1088 1089 1090 1091 1092 1093 1094 1095 1096 1097 1098 1099
v 1100 1101 1102 1103 1104 1105 1106 1107 1108 1109 1110 1111 1112 1113 1114
v 1115 1116 1117 1118 1119 1120 1121 1122 1123 1124 1125 1126 1127 1128 1129
v 1130 1131 1132 1133 1134 1135 1136 1137 1138 -1139 -1140 -1141 -1142 -1143
v -1144 -1145 -1146 -1147 -1148 -1149 -1150 -1151 -1152 -1153 -1154 -1155
v -1156 -1157 -1158 -1159 -1160 -1161 -1162 -1163 -1164 1165 1166 1167 1168
v 1169 1170 1171 1172 1173 1174 1175 1176 1177 1178 1179 1180 1181 1182 1183
v 1184 1185 1186 1187 1188 1189 1190 1191 1192 1193 1194 1195 1196 1197 1198
v 1199 1200 1201 1202 1203 1204 1205 1206 1207 1208 1209 1210 1211 1212 -1213
v -1214 -1215 -1216 -1217 -1218 -1219 -1220 -1221 -1222 -1223 -1224 -1225
v -1226 -1227 -1228 -1229 -1230 -1231 -1232 -1233 -1234 -1235 -1236 -1237
v -1238 -1239 1240 1241 1242 1243 1244 1245 1246 1247 1248 1249 1250 1251 1252
v 1253 1254 1255 1256 1257 1258 1259 1260 1261 1262 1263 1264 1265 1266 1267
v 1268 1269 1270 1271 1272 1273 1274 1275 1276 1277 1278 1279 1280 1281 1282
v 1283 1284 1285 1286 -1287 -1288 -1289 -1290 -1291 -1292 -1293 -1294 -1295
v -1296 -1297 -1298 -1299 -1300 -1301 -1302 -1303 -1304 -1305 -1306 -1307
v -1308 -1309 -1310 -1311 -1312 -1313 -1314 -1315 1316 1317 1318 1319 1320
v 1321 1322 1323 1324 1325 1326 1327 1328 1329 1330 1331 1332 1333 1334 1335
v 1336 1337 1338 1339 1340 1341 1342 1343 1344 1345 1346 1347 1348 1349 1350
v 1351 1352 1353 1354 1355 1356 1357 1358 1359 1360 -1361 -1362 -1363 -1364
v -1365 -1366 -1367 -1368 -1369 -1370 -1371 -1372 -1373 -1374 -1375 -1376
v -1377 -1378 -1379 -1380 -1381 -1382 -1383 -1384 -1385 -1386 -1387 -1388
v -1389 -1390 -1391 1392 1393 1394 1395 1396 1397 1398 1399 1400 1401 1402
v 1403 1404 1405 1406 1407 1408 1409 1410 1411 1412 1413 1414 1415 1416 1417
v 1418 1419 1420 1421 1422 1423 1424 1425 1426 1427 1428 1429 1430 1431 1432
v 1433 1434 -1435 -1436 -1437 -1438 -1439 -1440 -1441 -1442 -1443 -1444 -1445
v -1446 -1447 -1448 -1449 -1450 -1451 -1452 -1453 -1454 -1455 -1456 -1457
v -1458 -1459 -1460 -1461 -1462 -1463 -1464 -1465 -1466 -1467 -1468 -1469 1470
v 1471 1472 1473 1474 1475 1476 1477 1478 1479 1480 1481 1482 1483 1484 1485
v 1486 1487 1488 1489 1490 1491 1492 1493 1494 1495 1496 1497 1498 1499 1500
v 1501 1502 1503 1504 1505 1506 1507 1508 -1509 -1510 -1511 -1512 -1513 -1514
v -1515 -1516 -1517 -1518 -1519 -1520 -1521 -1522 -1523 -1524 -1525 -1526
v -1527 -1528 -1529 -1530 -1531 -1532 -1533 -1534 -1535 -1536 -1537 -1538
v -1539 -1540 -1541 -1542 -1543 -1544 -1545 1546 1547 1548 1549 1550 1551 1552
v 1553 1554 1555 1556 1557 1558 1559 1560 1561 1562 1563 1564 1565 1566 1567
v 1568 1569 1570 1571 1572 1573 1574 1575 1576 1577 1578 1579 1580 1581 1582
v -1583 -1584 -1585 -1586 -1587 -1588 -1589 -1590 -1591 -1592 -1593 -1594
v -1595 -1596 -1597 -1598 -1599 -1600 -1601 -1602 -1603 -1604 -1605 -1606
v -1607 -1608 -1609 -1610 -1611 -1612 -1613 -1614 -1615 -1616 -1617 -1618
v -1619 -1620 -1621 -1622 -1623 1624 1625 1626 1627 1628 1629 1630 1631 1632
v 1633 1634 1635 1636 1637 1638 1639 1640 1641 1642 1643 1644 1645 1646 1647
v 1648 1649 1650 1651 1652 1653 1654 1655 1656 -1657 -1658 -1659 -1660 -1661
v -1662 -1663 -1664 -1665 -1666 -1667 -1668 -1669 -1670 -1671 -1672 -1673
v -1674 -1675 -1676 -1677 -1678 -1679 -1680 -1681 -1682 -1683 -1684 -1685
v -1686 -1687 -1688 -1689 -1690 -1691 -1692 -1693 -1694 -1695 -1696 -1697
v -1698 -1699 -1700 -1701 -1702 -1703 -1704 -1705 -1706 -1707 1708 1709 1710
v 1711 1712 1713 1714 1715 1716 1717 1718 1719 1720 1721 1722 1723 1724 1725
v 1726 1727 1728 1729 1730 -1731 -1732 -1733 -1734 -1735 -1736 -1737 -1738
v -1739 -1740 -1741 -1742 -1743 -1744 -1745 -1746 -1747 -1748 -1749 -1750
v -1751 -1752 -1753 -1754 -1755 -1756 -1757 -1758 -1759 -1760 -1761 -1762
v -1763 -1764 -1765 -1766 -1767 -1768 -1769 -1770 -1771 -1772 -1773 -1774
v -1775 -1776 -1777 -1778 -1779 -1780 -1781 -1782 -1783 -1784 1785 1786 1787
v 1788 1789 1790 1791 1792 1793 1794 1795 1796 1797 1798 1799 1800 1801 1802
v 1803 1804 -1805 -1806 -1807 -1808 -1809 -1810 -1811 -1812 -1813 -1814 -1815
v -1816 -1817 -1818 -1819 -1820 -1821 -1822 -1823 -1824 -1825 -1826 -1827
v -1828 -1829 -1830 -1831 -1832 -1833 -1834 -1835 -1836 -1837 -1838 -1839
v -1840 -1841 -1842 -1843 -1844 -1845 -1846 -1847 -1848 -1849 -1850 -1851
v -1852 -1853 -1854 -1855 -1856 -1857 -1858 -1859 -1860 -1861 1862 1863 1864
v 1865 1866 1867 1868 1869 1870 1871 1872 1873 1874 1875 1876 1877 1878 -1879
v -1880 -1881 -1882 -1883 -1884 -1885 -1886 -1887 -1888 -1889 -1890 -1891
v -1892 -1893 -1894 -1895 -1896 -1897 -1898 -1899 -1900 -1901 -1902 -1903
v -1904 -1905 -1906 -1907 -1908 -1909 -1910 -1911 -1912 -1913 -1914 -1915
v -1916 -1917 -1918 -1919 -1920 -1921 -1922 -1923 -1924 -1925 -1926 -1927
v -1928 -1929 -1930 -1931 -1932 -1933 -1934 -1935 -1936 1937 1938 1939 1940
v 1941 1942 1943 1944 1945 1946 1947 1948 1949 1950 1951 1952 -1953 -1954
v -1955 -1956 -1957 -1958 -1959 -1960 -1961 -1962 -1963 -1964 -1965 -1966
v -1967 -1968 -1969 -1970 -1971 -1972 -1973 -1974 -1975 -1976 -1977 -1978
v -1979 -1980 -1981 -1982 -1983 -1984 -1985 -1986 -1987 -1988 -1989 -1990
v -1991 -1992 -1993 -1994 -1995 -1996 -1997 -1998 -1999 -2000 -2001 -2002
v -2003 -2004 -2005 -2006 -2007 -2008 -2009 -2010 -2011 -2012 2013 2014 2015
v 2016 2017 2018 2019 2020 2021 2022 2023 2024 2025 2026 -2027 -2028 -2029
v -2030 -2031 -2032 -2033 -2034 -2035 -2036 -2037 -2038 -2039 -2040 -2041
v -2042 -2043 -2044 -2045 -2046 -2047 -2048 -2049 -2050 -2051 -2052 -2053
v -2054 -2055 -2056 -2057 -2058 -2059 -2060 -2061 -2062 -2063 -2064 -2065
v -2066 -2067 -2068 -2069 -2070 -2071 -2072 -2073 -2074 -2075 -2076 -2077
v -2078 -2079 -2080 -2081 -2082 -2083 -2084 -2085 -2086 -2087 2088 2089 2090
v 2091 2092 2093 2094 2095 2096 2097 2098 2099 2100 -2101 -2102 -2103 -2104
v -2105 -2106 -2107 -2108 -2109 -2110 -2111 -2112 -2113 -2114 -2115 -2116
v -2117 -2118 -2119 -2120 -2121 -2122 -2123 -2124 -2125 -2126 -2127 -2128
v -2129 -2130 -2131 -2132 -2133 -2134 -2135 -2136 -2137 -2138 -2139 -2140
v -2141 -2142 -2143 -2144 -2145 -2146 -2147 -2148 -2149 -2150 -2151 -2152
v -2153 -2154 -2155 -2156 -2157 -2158 -2159 -2160 -2161 -2162 2163 2164 2165
v 2166 2167 2168 2169 2170 2171 2172 2173 2174 -2175 -2176 -2177 -2178 -2179
v -2180 -2181 -2182 -2183 -2184 -2185 -2186 -2187 -2188 -2189 -2190 -2191
v -2192 -2193 -2194 -2195 -2196 -2197 -2198 -2199 -2200 -2201 -2202 -2203
v -2204 -2205 -2206 -2207 -2208 -2209 -2210 -2211 -2212 -2213 -2214 -2215
v -2216 -2217 -2218 -2219 -2220 -2221 -2222 -2223 -2224 -2225 -2226 -2227
v -2228 -2229 -2230 -2231 -2232 -2233 -2234 -2235 -2236 -2237 2238 2239 2240
v 2241 2242 2243 2244 2245 2246 2247 2248 -2249 -2250 -2251 -2252 -2253 -2254
v -2255 -2256 -2257 -2258 -2259 -2260 -2261 -2262 -2263 -2264 -2265 -2266
v -2267 -2268 -2269 -2270 -2271 -2272 -2273 -2274 -2275 -2276 -2277 -2278
v -2279 -2280 -2281 -2282 -2283 -2284 -2285 -2286 -2287 -2288 -2289 -2290
v -2291 -2292 -2293 -2294 -2295 -2296 -2297 -2298 -2299 -2300 -2301 -2302
v -2303 -2304 -2305 -2306 -2307 -2308 -2309 -2310 -2311 -2312 2313 2314 2315
v 2316 2317 2318 2319 2320 2321 2322 -2323 -2324 -2325 -2326 -2327 -2328 -2329
v -2330 -2331 -2332 -2333 -2334 -2335 -2336 -2337 -2338 -2339 -2340 -2341
v -2342 -2343 -2344 -2345 -2346 -2347 -2348 -2349 -2350 -2351 -2352 -2353
v -2354 -2355 -2356 -2357 -2358 -2359 -2360 -2361 -2362 -2363 -2364 -2365
v -2366 -2367 -2368 -2369 -2370 -2371 -2372 -2373 -2374 -2375 -2376 -2377
v -2378 -2379 -2380 -2381 -2382 -2383 -2384 -2385 -2386 -2387 2388 2389 2390
v 2391 2392 2393 2394 2395 2396 -2397 -2398 -2399 -2400 -2401 -2402 -2403
v -2404 -2405 -2406 -2407 -2408 -2409 -2410 -2411 -2412 -2413 -2414 -2415
v -2416 -2417 -2418 -2419 -2420 -2421 -2422 -2423 -2424 -2425 -2426 -2427
v -2428 -2429 -2430 -2431 -2432 -2433 -2434 -2435 -2436 -2437 -2438 -2439
v -2440 -2441 -2442 -2443 -2444 -2445 -2446 -2447 -2448 -2449 -2450 -2451
v -2452 -2453 -2454 -2455 -2456 -2457 -2458 -2459 -2460 -2461 -2462 2463 2464
v 2465 2466 2467 2468 2469 2470 -2471 -2472 -2473 -2474 -2475 -2476 -2477
v -2478 -2479 -2480 -2481 -2482 -2483 -2484 -2485 -2486 -2487 -2488 -2489
v -2490 -2491 -2492 -2493 -2494 -2495 -2496 -2497 -2498 -2499 -2500 -2501
v -2502 -2503 -2504 -2505 -2506 -2507 -2508 -2509 -2510 -2511 -2512 -2513
v -2514 -2515 -2516 -2517 -2518 -2519 -2520 -2521 -2522 -2523 -2524 -2525
v -2526 -2527 -2528 -2529 -2530 -2531 -2532 -2533 -2534 -2535 -2536 -2537
v -2538 2539 2540 2541 2542 2543 2544 -2545 -2546 -2547 -2548 -2549 -2550
v -2551 -2552 -2553 -2554 -2555 -2556 -2557 -2558 -2559 -2560 -2561 -2562
v -2563 -2564 -2565 -2566 -2567 -2568 -2569 -2570 -2571 -2572 -2573 -2574
v -2575 -2576 -2577 -2578 -2579 -2580 -2581 -2582 -2583 -2584 -2585 -2586
v -2587 -2588 -2589 -2590 -2591 -2592 -2593 -2594 -2595 -2596 -2597 -2598
v -2599 -2600 -2601 -2602 -2603 -2604 -2605 -2606 -2607 -2608 -2609 -2610
v -2611 -2612 -2613 -2614 -2615 2616 2617 2618 -2619 -2620 -2621 -2622 -2623
v -2624 -2625 -2626 -2627 -2628 -2629 -2630 -2631 -2632 -2633 -2634 -2635
v -2636 -2637 -2638 -2639 -2640 -2641 -2642 -2643 -2644 -2645 -2646 -2647
v -2648 -2649 -2650 -2651 -2652 -2653 -2654 -2655 -2656 -2657 -2658 -2659
v -2660 -2661 -2662 -2663 -2664 -2665 -2666 -2667 -2668 -2669 -2670 -2671
v -2672 -2673 -2674 -2675 -2676 -2677 -2678 -2679 -2680 -2681 -2682 -2683
v -2684 -2685 -2686 -2687 -2688 -2689 -2690 -2691 -2692 0
c 
c --- [ run-time profiling ] -------------------------------------------------
c 
c process time taken by individual solving procedures
c (percentage relative to process time for solving)
c 
c       168.67   97.19% search
c       109.21   62.93% unstable
c        56.04   32.29% stable
c         4.87    2.81% simplify
c         3.42    1.97% walk
c         2.79    1.61% subsume
c         1.02    0.59% vivify
c         0.48    0.27% probe
c         0.15    0.09% ternary
c         0.11    0.06% elim
c         0.00    0.00% parse
c         0.00    0.00% lucky
c   =================================
c       173.54  100.00% solve
c 
c last line shows process time for solving
c (percentage relative to total process time)
c 
c --- [ statistics ] ---------------------------------------------------------
c 
c chronological:            357435        20.19 %  of conflicts
c conflicts:               1770100     10199.95    per second
c decisions:               3194506     18407.88    per second
c eliminated:                 2050        76.15 %  of all variables
c fixed:                        85         3.16 %  of all variables
c learned:                 1736907        98.12 %  per conflict
c learned_lits:           67444320       100.00 %  learned literals
c minimized:                     0         0.00 %  learned literals
c shrunken:               24360893        36.12 %  learned literals
c minishrunken:            6540998         9.70 %  learned literals
c propagations:          158085446         0.91 M  per second
c reduced:                 1400533        79.12 %  per conflict
c rephased:                     59     30001.69    interval
c restarts:                  72890        24.28    interval
c stabilizing:                   5        38.53 %  of conflicts
c subsumed:                 243368         6.93 %  of all clauses
c strengthened:              23521         0.67 %  of all clauses
c ternary:                      19         0.02 %  of resolved
c vivified:                    329         0.01 %  of all clauses
c walked:                       19     93163.16    interval
c weakened:                   8775         2.89    average size
c 
c seconds are measured in process time for solving
c 
c --- [ resources ] ----------------------------------------------------------
c 
c total process time since initialization:       173.55    seconds
c total real time since initialization:          173.60    seconds
c maximum resident set size of process:           33.23    MB
c 
c --- [ shutting down ] ------------------------------------------------------
c 
c exit 10
